************************************************************************
file with basedata            : md349_.bas
initial value random generator: 1168537294
************************************************************************
projects                      :  1
jobs (incl. supersource/sink ):  22
horizon                       :  171
RESOURCES
  - renewable                 :  2   R
  - nonrenewable              :  2   N
  - doubly constrained        :  0   D
************************************************************************
PROJECT INFORMATION:
pronr.  #jobs rel.date duedate tardcost  MPM-Time
    1     20      0       27       10       27
************************************************************************
PRECEDENCE RELATIONS:
jobnr.    #modes  #successors   successors
   1        1          3           2   3   4
   2        3          3           8   9  11
   3        3          3           6   7  10
   4        3          3           5   6  20
   5        3          3           7  12  13
   6        3          3          11  14  15
   7        3          3           8  11  21
   8        3          1          15
   9        3          3          13  16  19
  10        3          2          17  18
  11        3          1          17
  12        3          2          14  19
  13        3          1          14
  14        3          1          21
  15        3          1          17
  16        3          2          18  21
  17        3          1          19
  18        3          1          20
  19        3          1          22
  20        3          1          22
  21        3          1          22
  22        1          0        
************************************************************************
REQUESTS/DURATIONS:
jobnr. mode duration  R 1  R 2  N 1  N 2
------------------------------------------------------------------------
  1      1     0       0    0    0    0
  2      1     3       6   10    0    7
         2     4       5    9    0    7
         3    10       5    9    0    6
  3      1     5       8    8    0    7
         2     9       5    7    2    0
         3    10       2    5    0    7
  4      1     2       5    7    0    8
         2     6       4    7    8    0
         3     7       4    6    0    6
  5      1     4       6    9    5    0
         2     9       5    8    5    0
         3     9       5    9    0    9
  6      1     6       6    6    0    5
         2     8       6    6    0    3
         3     9       6    5    2    0
  7      1     7       8    6    4    0
         2     8       6    5    2    0
         3     9       1    4    2    0
  8      1     1       3    1    0    7
         2     5       2    1    8    0
         3     8       2    1    6    0
  9      1     2       6    8    0    7
         2     5       5    2    0    6
         3     5       5    5    0    4
 10      1     7       9    7    9    0
         2     7      10    8    0    3
         3     9       8    6    8    0
 11      1     4       6    6    0    7
         2     9       5    4    2    0
         3    10       2    3    0    5
 12      1     1       6    7    0    6
         2     1       5    7    3    0
         3     7       5    6    1    0
 13      1     3       9    4    0    3
         2     4       9    3    3    0
         3    10       9    1    2    0
 14      1     1      10    7    8    0
         2     3       9    7    0    7
         3     5       8    7    0    2
 15      1     2       3    9    0    8
         2     5       2    7    0    5
         3     6       2    7    0    4
 16      1     8       4    8    1    0
         2     8       4    9    0    2
         3     8       2    9    2    0
 17      1     5       6    9    0    4
         2     8       5    4    0    4
         3    10       3    4    0    4
 18      1     2       9    3    0    7
         2     2       8    4    0    8
         3     9       5    2    0    6
 19      1     5       3    9    6    0
         2     9       2    7    0    5
         3    10       2    5    5    0
 20      1     8       9    9    9    0
         2     9       9    9    0    7
         3    10       9    8    0    6
 21      1     7       7    9    6    0
         2     9       4    6    0    6
         3    10       2    5    0    6
 22      1     0       0    0    0    0
************************************************************************
RESOURCEAVAILABILITIES:
  R 1  R 2  N 1  N 2
   18   17   77  116
************************************************************************
MAXIMAL LAGS:
from  to  type  delay
    1   22   ES      0
    1    2   ES      0
    2   22   ES      0
    1    3   ES      0
    3   22   ES      0
    1    4   ES      0
    4   22   ES      0
    1    5   ES      0
    5   22   ES      0
    1    6   ES      0
    6   22   ES      0
    1    7   ES      0
    7   22   ES      0
    1    8   ES      0
    8   22   ES      0
    1    9   ES      0
    9   22   ES      0
    1   10   ES      0
   10   22   ES      0
    1   11   ES      0
   11   22   ES      0
    1   12   ES      0
   12   22   ES      0
    1   13   ES      0
   13   22   ES      0
    1   14   ES      0
   14   22   ES      0
    1   15   ES      0
   15   22   ES      0
    1   16   ES      0
   16   22   ES      0
    1   17   ES      0
   17   22   ES      0
    1   18   ES      0
   18   22   ES      0
    1   19   ES      0
   19   22   ES      0
    1   20   ES      0
   20   22   ES      0
    1   21   ES      0
   21   22   ES      0
    1   22   ES      0
    2    8   SS      2
    2    8   SE      5
    2    8   ES     -4
    2    8   EE     -7
    2    9   SS      6
    2    9   SE    -11
    2    9   ES      8
    2    9   EE     -7
    2   11   SS      9
    2   11   SE      6
    2   11   ES     10
    2   11   EE     12
    3    6   SS     -8
    3    6   SE     -5
    3    6   ES     -5
    3    6   EE     -3
    3    7   SS     -2
    3    7   SE     -9
    3    7   ES    -10
    3    7   EE    -12
    3   10   SS     11
    3   10   SE    -11
    3   10   ES      6
    3   10   EE    -11
    4    5   SS      8
    4    5   SE      1
    4    5   ES      9
    4    5   EE    -11
    4    6   SS     -1
    4    6   SE     -5
    4    6   ES    -12
    4    6   EE      8
    4   20   SS     12
    4   20   SE      5
    4   20   ES      5
    4   20   EE      1
    5    7   SS      4
    5    7   SE     -4
    5    7   ES     -5
    5    7   EE    -12
    5   12   SS     -8
    5   12   SE     -9
    5   12   ES    -10
    5   12   EE      0
    5   13   SS      0
    5   13   SE      2
    5   13   ES     -5
    5   13   EE     -8
    6   11   SS      7
    6   11   SE    -12
    6   11   ES     -3
    6   11   EE      9
    6   14   SS     -2
    6   14   SE      2
    6   14   ES     -2
    6   14   EE     12
    6   15   SS      6
    6   15   SE      5
    6   15   ES      5
    6   15   EE      2
    7    8   SS     -2
    7    8   SE      6
    7    8   ES     -7
    7    8   EE    -10
    7   11   SS     -7
    7   11   SE      6
    7   11   ES     11
    7   11   EE      6
    7   21   SS     12
    7   21   SE      1
    7   21   ES     -3
    7   21   EE     -7
    8   15   SS      0
    8   15   SE    -11
    8   15   ES     -5
    8   15   EE     -5
    9   13   SS      1
    9   13   SE      9
    9   13   ES     -7
    9   13   EE    -12
    9   16   SS     10
    9   16   SE     -8
    9   16   ES      2
    9   16   EE     -1
    9   19   SS     -1
    9   19   SE      4
    9   19   ES     -7
    9   19   EE    -10
   10   17   SS     -4
   10   17   SE      2
   10   17   ES      2
   10   17   EE    -12
   10   18   SS     10
   10   18   SE      7
   10   18   ES     -8
   10   18   EE    -12
   11   17   SS      2
   11   17   SE     -9
   11   17   ES    -10
   11   17   EE     -1
   12   14   SS     -7
   12   14   SE     -5
   12   14   ES     10
   12   14   EE     12
   12   19   SS      5
   12   19   SE    -12
   12   19   ES     -7
   12   19   EE     -6
   13   14   SS      1
   13   14   SE     10
   13   14   ES     -7
   13   14   EE     -9
   14   21   SS      8
   14   21   SE      7
   14   21   ES     11
   14   21   EE      9
   15   17   SS     -7
   15   17   SE    -10
   15   17   ES     -1
   15   17   EE      4
   16   18   SS     -9
   16   18   SE      4
   16   18   ES      6
   16   18   EE      3
   16   21   SS     11
   16   21   SE    -12
   16   21   ES      9
   16   21   EE     -1
   17   19   SS      6
   17   19   SE     -9
   17   19   ES      1
   17   19   EE     -9
   18   20   SS     12
   18   20   SE     -9
   18   20   ES      4
   18   20   EE      1
************************************************************************
